10
0,1,2,3,4,5,6,7,8,9
12,0,2,3,4,5,6,7,8,9
12,1,0,3,4,5,6,7,8,9
12,1,2,0,4,5,6,7,8,9
12,1,2,3,0,5,6,7,8,9
12,1,2,3,4,0,6,7,8,9
12,1,2,3,4,5,0,7,8,9
12,1,2,3,4,5,6,0,8,9
12,1,2,3,4,5,6,1,0,9
12,1,2,3,4,5,6,6,8,0